
Gurobi 11.0.0 (win64, C++) logging started Mon Jul 28 19:11:05 2025

Set parameter TokenServer to value "141.76.38.119"
### START HEURISTIC APPROACH APPROACH ###
ProblemVariant: 1
### START PREPROCESSING ###
## Start start solution procedure ##
Start solution with 7 Vehicles and total costs 811.516 in 11.6504 s.
### END PREPROCESSING ###
Route 0 0-1-24-25-27-29-0 : weight util 0.600000 | volume util 0.626400 | infeasible with packing heuristic | feasible with CP model
Route 1 0-16-7-13-15-19-0 : weight util 0.311111 | volume util 0.678267 | infeasible with packing heuristic | feasible with CP model
Route 2 0-18-0 : weight util 0.033333 | volume util 0.243200 | infeasible with packing heuristic | feasible with CP model
Route 3 0-20-3-6-4-5-2-0 : weight util 0.883333 | volume util 0.686444 | infeasible with packing heuristic | feasible with CP model
Route 4 0-21-14-8-9-17-0 : weight util 0.555556 | volume util 0.535667 | infeasible with packing heuristic | feasible with CP model
Route 5 0-22-26-28-0 : weight util 0.122222 | volume util 0.415244 | infeasible with packing heuristic | feasible with CP model
Route 6 0-23-12-11-10-0 : weight util 0.327778 | volume util 0.690867 | infeasible with packing heuristic | feasible with CP model
